(set-logic QF_S)
(declare-fun var0 () String)
(assert (str.in.re var0 (re.++ (re.* (re.+ (str.to.re "000"))) (re.++ (re.union (re.* (str.to.re "1")) (re.* (str.to.re "22"))) (re.++ (re.+ (re.* (str.to.re "33"))) (re.++ (re.* (re.union (str.to.re "44") (str.to.re "55"))) (re.++ (re.union (re.union (str.to.re "6") (str.to.re "7")) (re.union (str.to.re "8") (str.to.re "9"))) (re.++ (re.union (re.union (str.to.re "aaa") (str.to.re "bb")) (re.union (str.to.re "c") (str.to.re "dd"))) (re.++ (re.union (re.union (str.to.re "e") (str.to.re "fff")) (re.union (str.to.re "g") (str.to.re "h"))) (re.++ (re.union (re.union (str.to.re "ii") (str.to.re "jjj")) (re.union (str.to.re "k") (str.to.re "lll"))) (re.++ (re.* (re.+ (str.to.re "mmm"))) (re.+ (re.+ (str.to.re "nn"))))))))))))))
(assert (<= 451 (str.len var0)))
(check-sat)